PRODUCT = {hacha,espada,pica,lanza,mazo};
RESOURCES = {hierro,madera,herrero,carpintero};
capacity = [5000.0,7500.0,4000.0,3000.0];
consumo = [|1.5,1.0,1.0,1.0|2.0,0.0,2.0,0.0|1.5,0.5,1.0,1.0|0.5,1.0,0.9,1.5|0.1,2.5,0.1,2.5|];
profit = [11.0,18.0,15.0,17.0,11.0]